200 1947
1 3 1
1 7 1
1 15 1
1 23 1
1 65 1
1 70 1
1 87 1
1 108 1
1 131 1
1 134 1
1 136 1
1 138 1
1 151 1
1 161 1
1 165 1
1 185 1
1 186 1
1 196 1
1 198 1
2 16 1
2 22 1
2 25 1
2 43 1
2 49 1
2 57 1
2 85 1
2 96 1
2 97 1
2 99 1
2 108 1
2 144 1
2 150 1
2 161 1
2 162 1
2 163 1
2 168 1
2 180 1
2 187 1
3 7 1
3 8 1
3 33 1
3 47 1
3 57 1
3 59 1
3 60 1
3 65 1
3 75 1
3 77 1
3 90 1
3 99 1
3 105 1
3 120 1
3 124 1
3 138 1
3 140 1
3 145 1
3 159 1
3 174 1
3 182 1
4 7 1
4 9 1
4 18 1
4 23 1
4 58 1
4 63 1
4 65 1
4 78 1
4 79 1
4 88 1
4 95 1
4 103 1
4 119 1
4 124 1
4 131 1
4 134 1
4 137 1
4 146 1
4 154 1
4 168 1
4 191 1
5 6 1
5 12 1
5 13 1
5 16 1
5 29 1
5 43 1
5 53 1
5 63 1
5 73 1
5 80 1
5 88 1
5 108 1
5 112 1
5 134 1
5 153 1
5 160 1
5 190 1
5 198 1
6 8 1
6 10 1
6 12 1
6 37 1
6 40 1
6 42 1
6 46 1
6 50 1
6 73 1
6 81 1
6 82 1
6 90 1
6 100 1
6 117 1
6 118 1
6 127 1
6 130 1
6 136 1
6 151 1
6 153 1
6 158 1
6 164 1
6 170 1
6 192 1
7 8 1
7 9 1
7 14 1
7 17 1
7 38 1
7 40 1
7 46 1
7 49 1
7 59 1
7 67 1
7 85 1
7 91 1
7 107 1
7 123 1
7 132 1
7 138 1
7 139 1
7 144 1
7 146 1
7 159 1
7 188 1
7 189 1
7 191 1
8 12 1
8 23 1
8 37 1
8 38 1
8 78 1
8 79 1
8 92 1
8 103 1
8 116 1
8 157 1
8 171 1
8 191 1
9 13 1
9 17 1
9 22 1
9 37 1
9 39 1
9 50 1
9 57 1
9 59 1
9 68 1
9 86 1
9 102 1
9 120 1
9 133 1
9 183 1
9 192 1
9 197 1
10 11 1
10 15 1
10 61 1
10 86 1
10 122 1
10 145 1
10 176 1
10 199 1
11 24 1
11 33 1
11 46 1
11 63 1
11 78 1
11 105 1
11 107 1
11 114 1
11 117 1
11 126 1
11 146 1
11 149 1
11 179 1
11 181 1
11 183 1
11 191 1
11 192 1
11 197 1
12 23 1
12 28 1
12 32 1
12 40 1
12 41 1
12 50 1
12 59 1
12 71 1
12 76 1
12 90 1
12 112 1
12 121 1
12 126 1
12 133 1
12 136 1
12 138 1
12 143 1
12 152 1
12 190 1
12 194 1
13 20 1
13 23 1
13 24 1
13 26 1
13 31 1
13 92 1
13 147 1
13 159 1
13 171 1
13 177 1
13 189 1
13 192 1
13 197 1
14 34 1
14 42 1
14 44 1
14 56 1
14 57 1
14 71 1
14 85 1
14 92 1
14 93 1
14 94 1
14 102 1
14 107 1
14 120 1
14 123 1
14 125 1
14 127 1
14 132 1
14 144 1
14 158 1
14 161 1
14 180 1
14 189 1
14 193 1
15 36 1
15 57 1
15 70 1
15 81 1
15 82 1
15 83 1
15 89 1
15 116 1
15 123 1
15 133 1
15 135 1
15 141 1
15 160 1
15 163 1
15 167 1
15 170 1
15 190 1
15 193 1
16 39 1
16 45 1
16 56 1
16 64 1
16 103 1
16 104 1
16 108 1
16 125 1
16 128 1
16 135 1
16 155 1
16 161 1
16 167 1
16 169 1
16 172 1
16 184 1
16 186 1
16 192 1
17 24 1
17 31 1
17 32 1
17 44 1
17 60 1
17 61 1
17 66 1
17 77 1
17 83 1
17 88 1
17 99 1
17 102 1
17 109 1
17 117 1
17 120 1
17 134 1
17 153 1
17 157 1
17 165 1
17 166 1
17 169 1
17 172 1
17 174 1
17 175 1
17 189 1
17 193 1
18 20 1
18 29 1
18 33 1
18 48 1
18 69 1
18 75 1
18 76 1
18 112 1
18 114 1
18 115 1
18 125 1
18 140 1
18 163 1
18 190 1
18 198 1
19 36 1
19 39 1
19 42 1
19 79 1
19 87 1
19 98 1
19 108 1
19 110 1
19 113 1
19 121 1
19 128 1
19 138 1
19 144 1
19 148 1
19 149 1
19 155 1
19 161 1
19 162 1
19 176 1
19 195 1
19 199 1
20 22 1
20 27 1
20 30 1
20 37 1
20 42 1
20 43 1
20 48 1
20 66 1
20 75 1
20 80 1
20 108 1
20 109 1
20 123 1
20 141 1
20 150 1
20 154 1
20 159 1
20 163 1
20 169 1
20 184 1
20 186 1
20 193 1
20 198 1
21 31 1
21 43 1
21 50 1
21 63 1
21 71 1
21 79 1
21 80 1
21 86 1
21 115 1
21 121 1
21 131 1
21 132 1
21 145 1
21 151 1
21 156 1
21 170 1
21 198 1
21 200 1
22 33 1
22 40 1
22 43 1
22 53 1
22 57 1
22 60 1
22 79 1
22 81 1
22 87 1
22 103 1
22 105 1
22 114 1
22 130 1
22 141 1
22 167 1
22 168 1
22 175 1
22 199 1
22 200 1
23 34 1
23 47 1
23 62 1
23 81 1
23 86 1
23 91 1
23 92 1
23 95 1
23 117 1
23 184 1
23 195 1
24 43 1
24 60 1
24 61 1
24 76 1
24 78 1
24 87 1
24 115 1
24 121 1
24 122 1
24 125 1
24 142 1
24 143 1
24 153 1
24 171 1
24 184 1
24 190 1
25 33 1
25 35 1
25 42 1
25 87 1
25 101 1
25 107 1
25 122 1
25 139 1
25 145 1
25 147 1
25 166 1
25 173 1
25 183 1
26 31 1
26 39 1
26 47 1
26 57 1
26 59 1
26 73 1
26 75 1
26 96 1
26 100 1
26 101 1
26 104 1
26 110 1
26 122 1
26 124 1
26 133 1
26 134 1
26 138 1
26 152 1
26 158 1
26 172 1
26 180 1
26 193 1
27 29 1
27 34 1
27 43 1
27 65 1
27 79 1
27 83 1
27 91 1
27 94 1
27 95 1
27 136 1
27 138 1
27 144 1
27 145 1
27 149 1
27 153 1
27 166 1
27 184 1
27 193 1
28 29 1
28 31 1
28 35 1
28 44 1
28 55 1
28 67 1
28 74 1
28 83 1
28 91 1
28 97 1
28 100 1
28 118 1
28 121 1
28 129 1
28 140 1
28 143 1
28 148 1
28 155 1
28 160 1
28 161 1
28 162 1
28 182 1
28 198 1
29 38 1
29 44 1
29 45 1
29 49 1
29 58 1
29 61 1
29 74 1
29 86 1
29 93 1
29 101 1
29 109 1
29 134 1
29 138 1
29 151 1
29 161 1
29 164 1
29 169 1
29 171 1
29 190 1
30 33 1
30 89 1
30 140 1
30 141 1
30 153 1
30 157 1
30 164 1
30 166 1
30 169 1
30 176 1
30 195 1
31 41 1
31 49 1
31 50 1
31 56 1
31 60 1
31 100 1
31 107 1
31 116 1
31 124 1
31 145 1
31 170 1
31 177 1
31 178 1
31 189 1
31 199 1
32 46 1
32 60 1
32 62 1
32 68 1
32 70 1
32 74 1
32 83 1
32 132 1
32 137 1
32 190 1
32 197 1
33 37 1
33 39 1
33 54 1
33 56 1
33 59 1
33 62 1
33 72 1
33 82 1
33 92 1
33 93 1
33 106 1
33 112 1
33 116 1
33 118 1
33 129 1
33 159 1
33 160 1
33 163 1
33 166 1
33 184 1
34 43 1
34 83 1
34 85 1
34 103 1
34 105 1
34 106 1
34 128 1
34 138 1
34 140 1
34 147 1
34 158 1
34 162 1
34 174 1
34 176 1
34 182 1
34 194 1
34 197 1
34 198 1
35 44 1
35 49 1
35 98 1
35 100 1
35 105 1
35 112 1
35 125 1
35 132 1
35 140 1
35 142 1
35 148 1
35 149 1
35 157 1
35 173 1
35 178 1
35 184 1
35 186 1
35 191 1
35 200 1
36 39 1
36 41 1
36 47 1
36 58 1
36 64 1
36 80 1
36 85 1
36 87 1
36 88 1
36 96 1
36 104 1
36 105 1
36 107 1
36 125 1
36 132 1
36 140 1
36 156 1
36 159 1
36 164 1
36 169 1
36 177 1
36 188 1
36 189 1
36 191 1
36 197 1
37 50 1
37 63 1
37 65 1
37 74 1
37 81 1
37 89 1
37 97 1
37 114 1
37 147 1
37 149 1
37 159 1
37 160 1
37 161 1
37 163 1
37 174 1
37 176 1
37 182 1
37 183 1
38 45 1
38 50 1
38 55 1
38 63 1
38 75 1
38 78 1
38 92 1
38 95 1
38 123 1
38 130 1
38 138 1
38 141 1
38 142 1
38 145 1
38 158 1
38 171 1
38 192 1
39 40 1
39 43 1
39 66 1
39 79 1
39 84 1
39 88 1
39 108 1
39 116 1
39 139 1
39 156 1
39 160 1
39 170 1
40 43 1
40 48 1
40 51 1
40 74 1
40 86 1
40 104 1
40 126 1
40 140 1
40 153 1
40 166 1
40 167 1
40 180 1
40 195 1
40 199 1
41 64 1
41 68 1
41 74 1
41 97 1
41 104 1
41 111 1
41 124 1
41 129 1
41 145 1
41 146 1
41 147 1
41 149 1
41 170 1
41 187 1
42 45 1
42 62 1
42 73 1
42 102 1
42 107 1
42 111 1
42 125 1
42 129 1
42 145 1
42 154 1
42 156 1
42 176 1
42 188 1
43 56 1
43 74 1
43 85 1
43 86 1
43 111 1
43 118 1
43 119 1
43 128 1
43 136 1
43 146 1
43 159 1
43 160 1
43 177 1
43 186 1
43 191 1
43 192 1
44 53 1
44 63 1
44 75 1
44 77 1
44 83 1
44 90 1
44 94 1
44 107 1
44 117 1
44 118 1
44 126 1
44 135 1
44 143 1
44 145 1
44 156 1
44 168 1
44 171 1
44 178 1
44 179 1
44 200 1
45 49 1
45 55 1
45 56 1
45 60 1
45 70 1
45 101 1
45 103 1
45 109 1
45 127 1
45 129 1
45 141 1
45 146 1
45 164 1
45 166 1
45 180 1
46 61 1
46 63 1
46 76 1
46 77 1
46 92 1
46 114 1
46 116 1
46 117 1
46 122 1
46 143 1
46 156 1
46 159 1
46 165 1
46 178 1
46 198 1
47 66 1
47 101 1
47 108 1
47 119 1
47 130 1
47 137 1
47 142 1
47 150 1
47 155 1
47 157 1
47 185 1
48 52 1
48 59 1
48 87 1
48 97 1
48 101 1
48 104 1
48 124 1
48 128 1
48 133 1
48 135 1
48 142 1
48 153 1
48 160 1
48 166 1
48 179 1
48 183 1
48 192 1
48 196 1
48 200 1
49 78 1
49 82 1
49 90 1
49 94 1
49 99 1
49 114 1
49 126 1
49 160 1
49 161 1
49 171 1
49 187 1
50 51 1
50 76 1
50 95 1
50 104 1
50 126 1
50 156 1
50 178 1
50 180 1
50 181 1
50 182 1
51 63 1
51 67 1
51 70 1
51 80 1
51 93 1
51 110 1
51 116 1
51 122 1
51 136 1
51 139 1
51 155 1
51 163 1
51 187 1
51 191 1
51 192 1
52 73 1
52 91 1
52 92 1
52 106 1
52 108 1
52 130 1
52 141 1
52 142 1
52 178 1
52 189 1
52 194 1
53 60 1
53 61 1
53 62 1
53 82 1
53 110 1
53 111 1
53 117 1
53 140 1
53 155 1
53 162 1
53 163 1
53 171 1
54 56 1
54 57 1
54 75 1
54 76 1
54 97 1
54 100 1
54 104 1
54 107 1
54 112 1
54 123 1
54 138 1
54 144 1
54 167 1
54 168 1
54 182 1
54 185 1
54 187 1
54 197 1
54 198 1
55 62 1
55 66 1
55 69 1
55 70 1
55 86 1
55 91 1
55 95 1
55 103 1
55 120 1
55 126 1
55 168 1
55 192 1
56 63 1
56 74 1
56 78 1
56 97 1
56 99 1
56 100 1
56 101 1
56 106 1
56 111 1
56 156 1
56 158 1
57 65 1
57 74 1
57 91 1
57 95 1
57 96 1
57 99 1
57 107 1
57 121 1
57 136 1
57 139 1
57 153 1
57 175 1
57 195 1
58 78 1
58 95 1
58 102 1
58 124 1
58 132 1
58 133 1
58 137 1
58 142 1
58 150 1
58 162 1
59 79 1
59 84 1
59 86 1
59 97 1
59 115 1
59 121 1
59 128 1
59 130 1
59 131 1
59 141 1
59 145 1
59 155 1
59 160 1
59 179 1
59 191 1
59 192 1
60 74 1
60 78 1
60 87 1
60 91 1
60 117 1
60 129 1
60 131 1
60 136 1
60 141 1
60 142 1
60 161 1
60 187 1
60 197 1
60 198 1
61 76 1
61 81 1
61 83 1
61 91 1
61 112 1
61 114 1
61 115 1
61 129 1
61 130 1
61 140 1
61 171 1
61 177 1
61 188 1
61 191 1
62 63 1
62 64 1
62 66 1
62 72 1
62 76 1
62 94 1
62 105 1
62 107 1
62 117 1
62 119 1
62 135 1
62 141 1
62 143 1
62 145 1
62 146 1
62 155 1
62 159 1
62 160 1
62 162 1
62 166 1
62 175 1
62 177 1
62 180 1
62 196 1
63 67 1
63 87 1
63 93 1
63 121 1
63 135 1
63 161 1
64 78 1
64 80 1
64 83 1
64 93 1
64 97 1
64 101 1
64 129 1
64 144 1
64 148 1
64 184 1
64 192 1
65 73 1
65 79 1
65 85 1
65 95 1
65 111 1
65 133 1
65 137 1
65 159 1
65 183 1
65 184 1
65 187 1
65 191 1
65 192 1
65 194 1
66 67 1
66 76 1
66 77 1
66 78 1
66 87 1
66 108 1
66 110 1
66 113 1
66 116 1
66 125 1
66 129 1
66 134 1
66 142 1
66 148 1
66 149 1
66 166 1
66 167 1
66 179 1
67 82 1
67 83 1
67 102 1
67 105 1
67 119 1
67 128 1
67 142 1
67 150 1
67 152 1
67 175 1
67 176 1
67 178 1
67 184 1
67 199 1
67 200 1
68 69 1
68 72 1
68 103 1
68 108 1
68 113 1
68 147 1
68 166 1
68 170 1
68 171 1
68 176 1
68 177 1
68 187 1
69 70 1
69 71 1
69 80 1
69 92 1
69 98 1
69 111 1
69 148 1
69 161 1
69 164 1
69 167 1
69 168 1
69 169 1
69 173 1
69 199 1
70 73 1
70 83 1
70 95 1
70 99 1
70 112 1
70 113 1
70 114 1
70 124 1
70 138 1
70 142 1
70 148 1
70 151 1
70 158 1
70 159 1
70 178 1
70 181 1
71 121 1
71 134 1
71 142 1
71 143 1
71 158 1
71 178 1
71 182 1
71 194 1
71 200 1
72 77 1
72 81 1
72 85 1
72 90 1
72 96 1
72 97 1
72 101 1
72 104 1
72 119 1
72 121 1
72 122 1
72 151 1
72 162 1
72 163 1
72 181 1
73 82 1
73 88 1
73 90 1
73 99 1
73 101 1
73 115 1
73 120 1
73 137 1
73 152 1
73 177 1
74 79 1
74 91 1
74 98 1
74 102 1
74 124 1
74 132 1
74 133 1
74 141 1
74 157 1
74 159 1
74 173 1
74 181 1
75 76 1
75 96 1
75 98 1
75 116 1
75 118 1
75 147 1
75 153 1
75 155 1
75 156 1
75 171 1
75 173 1
75 179 1
76 77 1
76 93 1
76 94 1
76 101 1
76 102 1
76 114 1
76 123 1
76 137 1
76 140 1
76 142 1
76 151 1
76 156 1
76 158 1
76 160 1
76 167 1
76 196 1
77 102 1
77 106 1
77 125 1
77 127 1
77 129 1
77 135 1
77 140 1
77 145 1
77 160 1
77 162 1
77 166 1
77 167 1
77 168 1
77 192 1
77 194 1
77 195 1
78 79 1
78 86 1
78 88 1
78 91 1
78 110 1
78 124 1
78 129 1
78 139 1
78 152 1
78 160 1
78 164 1
78 168 1
78 189 1
78 196 1
79 82 1
79 87 1
79 89 1
79 101 1
79 105 1
79 106 1
79 107 1
79 134 1
79 136 1
79 137 1
79 147 1
79 148 1
80 99 1
80 133 1
80 142 1
80 144 1
80 153 1
80 158 1
80 171 1
80 172 1
80 179 1
80 189 1
80 191 1
80 195 1
81 82 1
81 95 1
81 99 1
81 119 1
81 123 1
81 127 1
81 146 1
81 147 1
81 148 1
81 152 1
81 155 1
81 163 1
81 167 1
82 92 1
82 98 1
82 104 1
82 105 1
82 106 1
82 114 1
82 118 1
82 126 1
82 138 1
82 148 1
82 154 1
82 158 1
82 176 1
82 198 1
83 89 1
83 92 1
83 96 1
83 124 1
83 128 1
83 136 1
83 139 1
83 141 1
83 160 1
83 164 1
83 181 1
83 182 1
83 184 1
83 188 1
83 199 1
84 96 1
84 103 1
84 104 1
84 105 1
84 110 1
84 151 1
84 154 1
84 159 1
84 170 1
84 178 1
84 185 1
85 89 1
85 92 1
85 98 1
85 104 1
85 108 1
85 115 1
85 140 1
85 144 1
85 150 1
85 154 1
85 160 1
85 180 1
86 88 1
86 97 1
86 98 1
86 100 1
86 102 1
86 133 1
86 135 1
86 147 1
86 154 1
86 160 1
86 180 1
86 188 1
87 96 1
87 100 1
87 101 1
87 106 1
87 112 1
87 131 1
87 136 1
87 137 1
87 160 1
87 178 1
87 180 1
87 183 1
87 193 1
87 199 1
88 94 1
88 104 1
88 113 1
88 119 1
88 125 1
88 131 1
88 137 1
88 141 1
88 151 1
88 153 1
89 95 1
89 114 1
89 125 1
89 132 1
89 185 1
90 99 1
90 100 1
90 103 1
90 117 1
90 118 1
90 126 1
90 134 1
90 140 1
90 143 1
90 144 1
90 172 1
90 175 1
90 178 1
90 181 1
90 182 1
90 190 1
91 92 1
91 105 1
91 107 1
91 111 1
91 138 1
91 142 1
91 153 1
91 179 1
91 181 1
91 190 1
91 193 1
92 94 1
92 103 1
92 108 1
92 114 1
92 115 1
92 117 1
92 132 1
92 137 1
92 162 1
92 171 1
93 146 1
93 147 1
93 153 1
93 171 1
93 174 1
93 194 1
93 199 1
94 97 1
94 98 1
94 114 1
94 137 1
94 142 1
94 153 1
94 177 1
94 188 1
94 190 1
94 193 1
94 196 1
94 198 1
95 101 1
95 112 1
95 120 1
95 129 1
95 146 1
95 157 1
95 168 1
95 178 1
95 197 1
95 198 1
95 199 1
96 125 1
96 133 1
96 164 1
97 116 1
97 131 1
97 136 1
97 138 1
97 153 1
97 157 1
97 171 1
97 173 1
98 110 1
98 118 1
98 140 1
98 146 1
98 147 1
98 162 1
98 200 1
99 132 1
99 137 1
99 158 1
99 170 1
99 183 1
99 189 1
99 192 1
99 193 1
100 107 1
100 129 1
100 148 1
100 165 1
100 187 1
101 116 1
101 129 1
101 150 1
101 160 1
101 162 1
101 165 1
101 169 1
101 172 1
101 189 1
101 194 1
102 104 1
102 109 1
102 112 1
102 114 1
102 118 1
102 120 1
102 143 1
102 171 1
102 185 1
102 198 1
103 119 1
103 155 1
103 158 1
103 168 1
103 174 1
103 177 1
103 184 1
104 133 1
104 145 1
104 155 1
104 164 1
104 175 1
105 116 1
105 122 1
105 127 1
105 138 1
105 143 1
105 144 1
105 149 1
105 151 1
105 170 1
105 179 1
105 183 1
105 187 1
105 191 1
105 193 1
106 107 1
106 127 1
106 128 1
106 144 1
106 173 1
106 190 1
106 196 1
107 112 1
107 117 1
107 122 1
107 132 1
107 166 1
108 109 1
108 118 1
108 137 1
108 138 1
108 142 1
108 158 1
108 165 1
108 169 1
108 185 1
109 116 1
109 133 1
109 151 1
109 155 1
109 168 1
109 170 1
109 190 1
110 117 1
110 126 1
110 142 1
110 147 1
110 148 1
110 154 1
110 156 1
110 158 1
110 160 1
110 178 1
110 179 1
110 193 1
110 195 1
110 196 1
111 139 1
111 156 1
111 162 1
111 168 1
111 196 1
111 199 1
112 118 1
112 132 1
112 134 1
112 137 1
112 146 1
112 157 1
112 166 1
113 119 1
113 124 1
113 131 1
113 138 1
113 152 1
113 154 1
114 129 1
114 153 1
114 161 1
114 181 1
114 186 1
114 187 1
114 195 1
114 199 1
115 128 1
115 133 1
115 140 1
115 154 1
115 173 1
115 178 1
115 182 1
115 189 1
115 195 1
115 197 1
116 125 1
116 138 1
116 147 1
116 175 1
116 186 1
116 195 1
117 130 1
117 137 1
117 140 1
117 144 1
117 160 1
117 190 1
117 191 1
118 119 1
118 129 1
118 151 1
118 157 1
118 160 1
118 165 1
118 166 1
118 181 1
118 200 1
119 123 1
119 143 1
119 152 1
119 175 1
119 190 1
120 142 1
120 161 1
120 174 1
120 196 1
121 127 1
121 133 1
121 135 1
121 168 1
121 192 1
122 123 1
122 124 1
122 138 1
122 194 1
123 131 1
123 136 1
123 147 1
123 172 1
123 185 1
124 126 1
124 133 1
124 137 1
124 139 1
124 149 1
124 150 1
124 156 1
124 158 1
124 161 1
124 189 1
124 198 1
125 132 1
125 156 1
125 189 1
125 198 1
126 145 1
126 146 1
126 151 1
126 159 1
126 162 1
126 169 1
126 183 1
126 188 1
127 129 1
127 156 1
127 178 1
127 179 1
127 183 1
127 199 1
128 137 1
128 146 1
128 148 1
128 157 1
128 166 1
128 167 1
128 168 1
129 146 1
129 148 1
129 166 1
129 182 1
130 131 1
130 133 1
130 162 1
130 171 1
130 174 1
130 177 1
130 180 1
130 189 1
130 197 1
131 135 1
131 138 1
131 147 1
131 154 1
131 174 1
131 178 1
131 199 1
132 135 1
132 136 1
132 146 1
132 148 1
132 150 1
132 159 1
132 166 1
132 173 1
132 175 1
132 178 1
132 184 1
133 147 1
133 166 1
133 186 1
133 194 1
133 198 1
133 199 1
134 137 1
134 147 1
134 154 1
134 160 1
134 163 1
134 165 1
134 167 1
134 172 1
134 174 1
134 187 1
135 146 1
135 148 1
135 158 1
135 165 1
135 172 1
135 184 1
135 196 1
135 199 1
136 152 1
136 170 1
136 181 1
136 183 1
136 186 1
136 195 1
137 151 1
137 154 1
137 162 1
137 185 1
137 193 1
137 195 1
138 151 1
138 162 1
138 164 1
138 173 1
138 177 1
138 182 1
138 193 1
138 194 1
139 145 1
139 156 1
139 159 1
139 162 1
139 191 1
140 154 1
140 171 1
140 195 1
141 175 1
141 186 1
141 190 1
141 192 1
141 196 1
142 148 1
142 179 1
142 191 1
142 192 1
142 193 1
142 200 1
143 144 1
143 152 1
143 155 1
143 156 1
143 161 1
143 163 1
143 182 1
143 185 1
144 162 1
144 179 1
144 181 1
144 182 1
144 183 1
144 193 1
145 147 1
145 150 1
145 154 1
145 156 1
145 165 1
145 171 1
145 184 1
145 197 1
146 148 1
146 149 1
146 152 1
146 153 1
146 174 1
146 175 1
146 200 1
147 153 1
147 159 1
147 162 1
147 163 1
147 182 1
147 183 1
147 199 1
148 154 1
148 173 1
148 175 1
148 189 1
148 199 1
148 200 1
149 151 1
149 155 1
149 167 1
149 175 1
149 185 1
150 156 1
150 157 1
150 162 1
150 188 1
150 189 1
150 191 1
151 157 1
151 165 1
151 177 1
151 194 1
151 198 1
152 153 1
152 188 1
152 194 1
152 200 1
153 154 1
153 157 1
153 160 1
153 163 1
153 166 1
153 168 1
153 191 1
154 159 1
154 172 1
154 191 1
155 157 1
155 161 1
155 177 1
155 180 1
155 181 1
155 190 1
155 195 1
155 196 1
156 160 1
156 164 1
156 168 1
156 181 1
156 197 1
157 190 1
158 162 1
158 165 1
158 170 1
158 187 1
158 191 1
158 192 1
158 193 1
158 196 1
159 180 1
159 190 1
159 196 1
160 164 1
160 171 1
160 198 1
160 199 1
161 162 1
161 164 1
161 170 1
161 173 1
161 177 1
161 184 1
162 167 1
162 177 1
162 179 1
163 179 1
163 183 1
163 186 1
164 180 1
164 192 1
164 194 1
165 166 1
165 183 1
165 184 1
165 199 1
166 174 1
166 198 1
167 176 1
167 195 1
168 180 1
169 191 1
170 186 1
170 199 1
171 174 1
171 175 1
172 181 1
172 183 1
172 200 1
173 177 1
173 181 1
173 186 1
173 198 1
173 199 1
174 193 1
174 197 1
174 199 1
175 194 1
176 197 1
177 194 1
178 187 1
178 191 1
178 197 1
179 181 1
179 188 1
179 190 1
179 192 1
179 195 1
179 199 1
180 193 1
182 189 1
182 194 1
183 187 1
183 190 1
183 195 1
183 197 1
184 185 1
184 186 1
184 199 1
184 200 1
185 191 1
186 192 1
186 194 1
187 188 1
187 192 1
187 193 1
188 195 1
189 193 1
190 193 1
191 192 1
192 196 1
192 197 1
196 200 1
198 200 1
199 200 1
